objective value:                     0.91536989135402
x(0,19,0)                                           1 	(obj:0)
x(1,5,2)                                            1 	(obj:0)
x(1,6,1)                                            1 	(obj:0)
x(2,1,2)                                            1 	(obj:0)
x(3,0,0)                                            1 	(obj:0)
x(4,11,1)                                           1 	(obj:0)
x(5,18,2)                                           1 	(obj:0)
x(6,4,1)                                            1 	(obj:0)
x(8,2,2)                                            1 	(obj:0)
x(9,3,0)                                            1 	(obj:0)
x(11,1,1)                                           1 	(obj:0)
x(18,8,2)                                           1 	(obj:0)
x(19,9,0)                                           1 	(obj:0)
xc(0,4)                                             1 	(obj:0)
xc(1,2)                                             1 	(obj:0)
xc(1,11)                                            1 	(obj:0)
xc(2,11)                                            1 	(obj:0)
xc(4,0)                                             1 	(obj:0)
u(0,0)                               0.45814715951373 	(obj:0)
u(0,1)                               0.91536989135402 	(obj:0)
u(1,2)                              0.565019006148169 	(obj:0)
u(2,0)                               0.91536989135402 	(obj:0)
u(2,2)                               0.37565491830247 	(obj:0)
u(3,0)                               0.36843161921541 	(obj:0)
u(3,2)                               0.91536989135402 	(obj:0)
u(4,1)                               0.53527919939834 	(obj:0)
u(5,1)                               0.91536989135402 	(obj:0)
u(5,2)                              0.819626822301039 	(obj:0)
u(6,1)                                0.4466967732127 	(obj:0)
u(7,1)                               0.91536989135402 	(obj:0)
u(7,2)                               0.91536989135402 	(obj:0)
u(8,0)                               0.91536989135402 	(obj:0)
u(8,1)                               0.91536989135402 	(obj:0)
u(10,0)                              0.91536989135402 	(obj:0)
u(10,1)                              0.91536989135402 	(obj:0)
u(10,2)                              0.91536989135402 	(obj:0)
u(11,0)                              0.91536989135402 	(obj:0)
u(11,1)                              0.91536989135402 	(obj:0)
u(11,2)                              0.91536989135402 	(obj:0)
u(12,0)                              0.91536989135402 	(obj:0)
u(12,1)                              0.91536989135402 	(obj:0)
u(12,2)                              0.91536989135402 	(obj:0)
u(13,0)                              0.91536989135402 	(obj:0)
u(13,1)                              0.91536989135402 	(obj:0)
u(13,2)                              0.91536989135402 	(obj:0)
u(14,0)                              0.91536989135402 	(obj:0)
u(14,1)                              0.91536989135402 	(obj:0)
u(14,2)                              0.91536989135402 	(obj:0)
u(15,0)                              0.91536989135402 	(obj:0)
u(15,1)                              0.91536989135402 	(obj:0)
u(15,2)                              0.91536989135402 	(obj:0)
u(16,0)                              0.91536989135402 	(obj:0)
u(16,1)                              0.91536989135402 	(obj:0)
u(16,2)                              0.91536989135402 	(obj:0)
u(17,0)                              0.91536989135402 	(obj:0)
u(17,1)                              0.91536989135402 	(obj:0)
u(17,2)                              0.91536989135402 	(obj:0)
u(18,0)                              0.91536989135402 	(obj:0)
u(18,1)                              0.91536989135402 	(obj:0)
u(18,2)                              0.91536989135402 	(obj:0)
u(19,0)                              0.91536989135402 	(obj:0)
u(19,1)                              0.91536989135402 	(obj:0)
u(19,2)                              0.91536989135402 	(obj:0)
f(0,4,0)                                            1 	(obj:0)
f(0,4,3)                                            1 	(obj:0)
f(0,19,0)                                           1 	(obj:0)
f(0,19,1)                                           1 	(obj:0)
f(0,19,2)                                           1 	(obj:0)
f(0,19,3)                                           1 	(obj:0)
f(0,19,4)                                           1 	(obj:0)
f(1,2,0)                                            1 	(obj:0)
f(1,6,1)                                            1 	(obj:0)
f(1,6,2)                                            1 	(obj:0)
f(2,1,2)                                            1 	(obj:0)
f(2,11,0)                                           1 	(obj:0)
f(3,0,3)                                            1 	(obj:0)
f(4,0,0)                                            1 	(obj:0)
f(4,0,1)                                            1 	(obj:0)
f(4,0,2)                                            1 	(obj:0)
f(4,0,3)                                            1 	(obj:0)
f(4,0,4)                                            1 	(obj:0)
f(6,4,1)                                            1 	(obj:0)
f(6,4,2)                                            1 	(obj:0)
f(11,1,0)                                           1 	(obj:0)
f(19,9,0)                                           1 	(obj:0)
f(19,9,1)                                           1 	(obj:0)
f(19,9,2)                                           1 	(obj:0)
f(19,9,3)                                           1 	(obj:0)
f(19,9,4)                                           1 	(obj:0)
z_r(0,)                              0.91536989135402 	(obj:0)
z_r(1,)                              0.91536989135402 	(obj:0)
z_r(2,)                              0.91536989135402 	(obj:0)
z                                    0.91536989135402 	(obj:1)
